
Log started (V20.1.0.0) Sun Aug  7 17:57:36 2022


Problem 'pp.lp' read.
Read time = 0.00 sec. (0.00 ticks)
Version identifier: 20.1.0.0 | 2020-11-10 | 9bedb6d68
Tried aggregator 1 time.
LP Presolve eliminated 2 rows and 1 columns.
Aggregator did 1 substitutions.
All rows and columns eliminated.
Presolve time = 0.00 sec. (0.00 ticks)

Dual simplex - Optimal:  Objective =  4.0000000000e+00
Solution time =    0.00 sec.  Iterations = 0 (0)
Deterministic time = 0.00 ticks  (2.18 ticks/sec)


Log started (V20.1.0.0) Sun Aug  7 18:10:23 2022


Problem 'pd.lp' read.
Read time = 0.00 sec. (0.00 ticks)
Version identifier: 20.1.0.0 | 2020-11-10 | 9bedb6d68
Tried aggregator 1 time.
LP Presolve eliminated 1 rows and 2 columns.
Aggregator did 1 substitutions.
All rows and columns eliminated.
Presolve time = 0.00 sec. (0.00 ticks)

Dual simplex - Optimal:  Objective =  9.5000000000e+00
Solution time =    0.01 sec.  Iterations = 0 (0)
Deterministic time = 0.00 ticks  (0.15 ticks/sec)


Variable Name           Solution Value
w1                            1.375000
w3                           -0.250000
All other variables matching '*' are 0.
